39 70 70 70 39 39 70 70 39 39 39 70 39 39 70 70 70 70 39 39 70 70 39 70 70 70 39 39 70 70 39 39 70 70 39 39 39 39 39 39 70 70 39 70 70 39 70 70 39 70 39 70 70 70 70 39 70 39 70 39 39 39 70 39 39 70 70 39 39 39 70 70 39 39 70 39 39 70 39 70 70 70 70 39 70 70 70 39 39 70 70 70 39 70 39 39 70 39 70 70 70 70 70 70 39 70 39 70 70 39 39 39 39 39 70 70 70 70 39 39 70 39 70 39 39 39 70 70 39 70 70 39 70 70 39 70 70 39 70 70 70 39 39 39 39 39 39 39 39 70 70 39 39 70 39 39 70 39 39 39 70 39 70 70 39 70 70 39 39 39 39 39 70 39 70 39 70 70 70 70 70 39 39 70 39 70 39 39 70 70 70 70 39 39 70 70 39 39 39 70 70 70 39 70 39 39 70 70 39 70 70 70 39 39 70 39 70 39 70 70 39 39 70 70 70 70 70 39 39 39 39 39 39 70 70 39 39 70 39 39 70 39 39 70 70 39 39 70 70 39 70 39 70 70 39 70 39 39 39 70 70 70 70 39 70 70 70 70 70 39 39 70 70 70 70 39 39 39 39 39 39 70 70 39 70 39 70 39 70 39 70 70 70 70 39 70 70 70 70 70 39 39 70 70 39 39 39 70 70 70 39 39 70 39 39 39 70 39 70 70 70 70 70 70 70 70 39 70 70 39 70 39 39 39 39 70 70 70 39 70 39 70 70 39 70 39 70 70 70 39 39 70 39 39 39 70 39 70 70 39 39 39 39 70 70 70 39 70 39 70 70 70 70 70 39 70 39 70 39 39 39 70 70 70 39 39 70 39 39 39 70 70 70 39 39 70 70 70 70 39 70 70 39 70 39 70 39 70 70 70 70 39 70 70 70 39 39 70 70 70 39 39 70 39 70 39 39 70 39 39 39 39 70 70 70 39 39 39 39 39 39 39 39 39 39 39 70 70 39 39 70 39 70 39 70 70 70 70 39 70 39 70 39 39 39 39 70 70 70 70 39 39 39 70 70 39 39 39 39 39 70 70 70 70 39 70 70 39 70 39 39 70 70 39 39 39 70 70 39 39 70 70 70 39 39 39 70 70 70 70 39 70 70 39 70 39 70 70 70 70 70 70 70 70 39 70 39 39 70 70 70 70 70 39 39 39 70 70 70 70 70 39 70 70 39 70 39 39 70 39 39 70 39 70 70 70 70 39 70 70 39 70 70 70 39 39 39 39 39 39 39 39 39 39 39 70 39 70 39 70 70 70 70 39 70 39 70 70 70 70 70 70 70 70 70 70 70 39 39 39 39 39 39 70 70 70 70 70 39 39 70 39 39 70 70 70 39 70 70 70 70 39 70 39 39 70 39 39 39 70 39 70 39 70 70 70 70 70 70 39 39 70 70 39 70 39 39 70 39 39 70 70 70 70 39 70 70 70 39 39 70 70 70 70 70 70 70 39 39 70 70 70 70 39 39 70 70 70 70 39 70 70 39 70 70 70 70 70 70 70 70 39 70 70 39 39 70 39 70 39 39 70 70 39 39 39 39 39 70 70 39 70 70 70 70 39 39 39 39 39 39 39 70 39 39 39 70 70 70 70 39 39 39 39 70 70 39 70 70 39 70 39 39 70 39 39 39 70 70 39 70 39 70 70 39 70 70 39 70 70 70 39 70 39 39 70 39 70 70 39 39 70 70 70 39 70 39 70 70 70 39 70 39 70 39 70 70 39 70 70 39 70 39 39 39 70 70 70 70 70 70 39 39 70 39 70 70 39 70 39 39 70 39 70 70 70 39 70 39 39 70 39 39 39 70 70 70 70 70 70 39 70 70 70 39 39 70 39 70 70 70 39 70 70 70 70 70 39 70 70 70 70 39 39 70 39 39 70 70 39 70 39 70 70 39 39 70 39 70 70 39 39 70 70 39 70 70 39 39 39 39 39 39 70 70 39 70 39 39 70 70 70 39 70 70 70 39 70 39 70 39 70 39 39 70 70 39 39 39 70 70 39 39 39 39 39 39 39 70 70 39 70 70 70 39 39 70 70 39 39 70 70 70 39 39 70 39 70 39 39 70 39 70 39 39 39 70 70 39 70 70 70 39 39 39 70 70 39 70 39 39 39 70 39 70 39 39 70 70 39 39 70 70 39 70 39 70 70 39 39 39 70 70 70 39 39 70 39 70 70 70 39 39 70 70 70 70 70 70 70 